DIMENSION :8
NODE_COORD_SECTION
1 24.543262538317293 95.24811357397653
2 -79.67197117094564 95.28953665718512
3 -57.96682891022187 52.66714602847492
4 -62.83692985944476 -37.72747523658655
5 36.53787229941207 49.59487392129208
6 33.36161482913394 -0.5443833020804618
7 32.36793657250308 35.10922176998349
8 -31.228872901208078 22.481244078707576
EOF
